p cnf 145 1565
-46 -47 0
-46 -48 0
-46 -49 0
-46 -50 0
-46 -51 0
-46 -52 0
-46 -53 0
-46 -54 0
-46 -55 0
-47 -48 0
-47 -49 0
-47 -50 0
-47 -51 0
-47 -52 0
-47 -53 0
-47 -54 0
-47 -55 0
-48 -49 0
-48 -50 0
-48 -51 0
-48 -52 0
-48 -53 0
-48 -54 0
-48 -55 0
-49 -50 0
-49 -51 0
-49 -52 0
-49 -53 0
-49 -54 0
-49 -55 0
-50 -51 0
-50 -52 0
-50 -53 0
-50 -54 0
-50 -55 0
-51 -52 0
-51 -53 0
-51 -54 0
-51 -55 0
-52 -53 0
-52 -54 0
-52 -55 0
-53 -54 0
-53 -55 0
-54 -55 0
46 47 48 49 50 51 52 53 54 55 0
-56 -57 0
-56 -58 0
-56 -59 0
-56 -60 0
-56 -61 0
-56 -62 0
-56 -63 0
-56 -64 0
-56 -65 0
-57 -58 0
-57 -59 0
-57 -60 0
-57 -61 0
-57 -62 0
-57 -63 0
-57 -64 0
-57 -65 0
-58 -59 0
-58 -60 0
-58 -61 0
-58 -62 0
-58 -63 0
-58 -64 0
-58 -65 0
-59 -60 0
-59 -61 0
-59 -62 0
-59 -63 0
-59 -64 0
-59 -65 0
-60 -61 0
-60 -62 0
-60 -63 0
-60 -64 0
-60 -65 0
-61 -62 0
-61 -63 0
-61 -64 0
-61 -65 0
-62 -63 0
-62 -64 0
-62 -65 0
-63 -64 0
-63 -65 0
-64 -65 0
56 57 58 59 60 61 62 63 64 65 0
-66 -67 0
-66 -68 0
-66 -69 0
-66 -70 0
-66 -71 0
-66 -72 0
-66 -73 0
-66 -74 0
-66 -75 0
-67 -68 0
-67 -69 0
-67 -70 0
-67 -71 0
-67 -72 0
-67 -73 0
-67 -74 0
-67 -75 0
-68 -69 0
-68 -70 0
-68 -71 0
-68 -72 0
-68 -73 0
-68 -74 0
-68 -75 0
-69 -70 0
-69 -71 0
-69 -72 0
-69 -73 0
-69 -74 0
-69 -75 0
-70 -71 0
-70 -72 0
-70 -73 0
-70 -74 0
-70 -75 0
-71 -72 0
-71 -73 0
-71 -74 0
-71 -75 0
-72 -73 0
-72 -74 0
-72 -75 0
-73 -74 0
-73 -75 0
-74 -75 0
66 67 68 69 70 71 72 73 74 75 0
-76 -77 0
-76 -78 0
-76 -79 0
-76 -80 0
-76 -81 0
-76 -82 0
-76 -83 0
-76 -84 0
-76 -85 0
-77 -78 0
-77 -79 0
-77 -80 0
-77 -81 0
-77 -82 0
-77 -83 0
-77 -84 0
-77 -85 0
-78 -79 0
-78 -80 0
-78 -81 0
-78 -82 0
-78 -83 0
-78 -84 0
-78 -85 0
-79 -80 0
-79 -81 0
-79 -82 0
-79 -83 0
-79 -84 0
-79 -85 0
-80 -81 0
-80 -82 0
-80 -83 0
-80 -84 0
-80 -85 0
-81 -82 0
-81 -83 0
-81 -84 0
-81 -85 0
-82 -83 0
-82 -84 0
-82 -85 0
-83 -84 0
-83 -85 0
-84 -85 0
76 77 78 79 80 81 82 83 84 85 0
-86 -87 0
-86 -88 0
-86 -89 0
-86 -90 0
-86 -91 0
-86 -92 0
-86 -93 0
-86 -94 0
-86 -95 0
-87 -88 0
-87 -89 0
-87 -90 0
-87 -91 0
-87 -92 0
-87 -93 0
-87 -94 0
-87 -95 0
-88 -89 0
-88 -90 0
-88 -91 0
-88 -92 0
-88 -93 0
-88 -94 0
-88 -95 0
-89 -90 0
-89 -91 0
-89 -92 0
-89 -93 0
-89 -94 0
-89 -95 0
-90 -91 0
-90 -92 0
-90 -93 0
-90 -94 0
-90 -95 0
-91 -92 0
-91 -93 0
-91 -94 0
-91 -95 0
-92 -93 0
-92 -94 0
-92 -95 0
-93 -94 0
-93 -95 0
-94 -95 0
86 87 88 89 90 91 92 93 94 95 0
-46 -56 0
-46 -66 0
-46 -76 0
-46 -86 0
-56 -66 0
-56 -76 0
-56 -86 0
-66 -76 0
-66 -86 0
-76 -86 0
-47 -57 0
-47 -67 0
-47 -77 0
-47 -87 0
-57 -67 0
-57 -77 0
-57 -87 0
-67 -77 0
-67 -87 0
-77 -87 0
-48 -58 0
-48 -68 0
-48 -78 0
-48 -88 0
-58 -68 0
-58 -78 0
-58 -88 0
-68 -78 0
-68 -88 0
-78 -88 0
-49 -59 0
-49 -69 0
-49 -79 0
-49 -89 0
-59 -69 0
-59 -79 0
-59 -89 0
-69 -79 0
-69 -89 0
-79 -89 0
-50 -60 0
-50 -70 0
-50 -80 0
-50 -90 0
-60 -70 0
-60 -80 0
-60 -90 0
-70 -80 0
-70 -90 0
-80 -90 0
-51 -61 0
-51 -71 0
-51 -81 0
-51 -91 0
-61 -71 0
-61 -81 0
-61 -91 0
-71 -81 0
-71 -91 0
-81 -91 0
-52 -62 0
-52 -72 0
-52 -82 0
-52 -92 0
-62 -72 0
-62 -82 0
-62 -92 0
-72 -82 0
-72 -92 0
-82 -92 0
-53 -63 0
-53 -73 0
-53 -83 0
-53 -93 0
-63 -73 0
-63 -83 0
-63 -93 0
-73 -83 0
-73 -93 0
-83 -93 0
-54 -64 0
-54 -74 0
-54 -84 0
-54 -94 0
-64 -74 0
-64 -84 0
-64 -94 0
-74 -84 0
-74 -94 0
-84 -94 0
-55 -65 0
-55 -75 0
-55 -85 0
-55 -95 0
-65 -75 0
-65 -85 0
-65 -95 0
-75 -85 0
-75 -95 0
-85 -95 0
1 -46 -57 0
1 -46 -67 0
1 -46 -77 0
1 -46 -87 0
1 -56 -47 0
1 -56 -67 0
1 -56 -77 0
1 -56 -87 0
1 -66 -47 0
1 -66 -57 0
1 -66 -77 0
1 -66 -87 0
1 -76 -47 0
1 -76 -57 0
1 -76 -67 0
1 -76 -87 0
1 -86 -47 0
1 -86 -57 0
1 -86 -67 0
1 -86 -77 0
2 -46 -58 0
2 -46 -68 0
2 -46 -78 0
2 -46 -88 0
2 -56 -48 0
2 -56 -68 0
2 -56 -78 0
2 -56 -88 0
2 -66 -48 0
2 -66 -58 0
2 -66 -78 0
2 -66 -88 0
2 -76 -48 0
2 -76 -58 0
2 -76 -68 0
2 -76 -88 0
2 -86 -48 0
2 -86 -58 0
2 -86 -68 0
2 -86 -78 0
3 -46 -59 0
3 -46 -69 0
3 -46 -79 0
3 -46 -89 0
3 -56 -49 0
3 -56 -69 0
3 -56 -79 0
3 -56 -89 0
3 -66 -49 0
3 -66 -59 0
3 -66 -79 0
3 -66 -89 0
3 -76 -49 0
3 -76 -59 0
3 -76 -69 0
3 -76 -89 0
3 -86 -49 0
3 -86 -59 0
3 -86 -69 0
3 -86 -79 0
4 -46 -60 0
4 -46 -70 0
4 -46 -80 0
4 -46 -90 0
4 -56 -50 0
4 -56 -70 0
4 -56 -80 0
4 -56 -90 0
4 -66 -50 0
4 -66 -60 0
4 -66 -80 0
4 -66 -90 0
4 -76 -50 0
4 -76 -60 0
4 -76 -70 0
4 -76 -90 0
4 -86 -50 0
4 -86 -60 0
4 -86 -70 0
4 -86 -80 0
5 -46 -61 0
5 -46 -71 0
5 -46 -81 0
5 -46 -91 0
5 -56 -51 0
5 -56 -71 0
5 -56 -81 0
5 -56 -91 0
5 -66 -51 0
5 -66 -61 0
5 -66 -81 0
5 -66 -91 0
5 -76 -51 0
5 -76 -61 0
5 -76 -71 0
5 -76 -91 0
5 -86 -51 0
5 -86 -61 0
5 -86 -71 0
5 -86 -81 0
6 -46 -62 0
6 -46 -72 0
6 -46 -82 0
6 -46 -92 0
6 -56 -52 0
6 -56 -72 0
6 -56 -82 0
6 -56 -92 0
6 -66 -52 0
6 -66 -62 0
6 -66 -82 0
6 -66 -92 0
6 -76 -52 0
6 -76 -62 0
6 -76 -72 0
6 -76 -92 0
6 -86 -52 0
6 -86 -62 0
6 -86 -72 0
6 -86 -82 0
7 -46 -63 0
7 -46 -73 0
7 -46 -83 0
7 -46 -93 0
7 -56 -53 0
7 -56 -73 0
7 -56 -83 0
7 -56 -93 0
7 -66 -53 0
7 -66 -63 0
7 -66 -83 0
7 -66 -93 0
7 -76 -53 0
7 -76 -63 0
7 -76 -73 0
7 -76 -93 0
7 -86 -53 0
7 -86 -63 0
7 -86 -73 0
7 -86 -83 0
8 -46 -64 0
8 -46 -74 0
8 -46 -84 0
8 -46 -94 0
8 -56 -54 0
8 -56 -74 0
8 -56 -84 0
8 -56 -94 0
8 -66 -54 0
8 -66 -64 0
8 -66 -84 0
8 -66 -94 0
8 -76 -54 0
8 -76 -64 0
8 -76 -74 0
8 -76 -94 0
8 -86 -54 0
8 -86 -64 0
8 -86 -74 0
8 -86 -84 0
9 -46 -65 0
9 -46 -75 0
9 -46 -85 0
9 -46 -95 0
9 -56 -55 0
9 -56 -75 0
9 -56 -85 0
9 -56 -95 0
9 -66 -55 0
9 -66 -65 0
9 -66 -85 0
9 -66 -95 0
9 -76 -55 0
9 -76 -65 0
9 -76 -75 0
9 -76 -95 0
9 -86 -55 0
9 -86 -65 0
9 -86 -75 0
9 -86 -85 0
10 -47 -58 0
10 -47 -68 0
10 -47 -78 0
10 -47 -88 0
10 -57 -48 0
10 -57 -68 0
10 -57 -78 0
10 -57 -88 0
10 -67 -48 0
10 -67 -58 0
10 -67 -78 0
10 -67 -88 0
10 -77 -48 0
10 -77 -58 0
10 -77 -68 0
10 -77 -88 0
10 -87 -48 0
10 -87 -58 0
10 -87 -68 0
10 -87 -78 0
11 -47 -59 0
11 -47 -69 0
11 -47 -79 0
11 -47 -89 0
11 -57 -49 0
11 -57 -69 0
11 -57 -79 0
11 -57 -89 0
11 -67 -49 0
11 -67 -59 0
11 -67 -79 0
11 -67 -89 0
11 -77 -49 0
11 -77 -59 0
11 -77 -69 0
11 -77 -89 0
11 -87 -49 0
11 -87 -59 0
11 -87 -69 0
11 -87 -79 0
12 -47 -60 0
12 -47 -70 0
12 -47 -80 0
12 -47 -90 0
12 -57 -50 0
12 -57 -70 0
12 -57 -80 0
12 -57 -90 0
12 -67 -50 0
12 -67 -60 0
12 -67 -80 0
12 -67 -90 0
12 -77 -50 0
12 -77 -60 0
12 -77 -70 0
12 -77 -90 0
12 -87 -50 0
12 -87 -60 0
12 -87 -70 0
12 -87 -80 0
13 -47 -61 0
13 -47 -71 0
13 -47 -81 0
13 -47 -91 0
13 -57 -51 0
13 -57 -71 0
13 -57 -81 0
13 -57 -91 0
13 -67 -51 0
13 -67 -61 0
13 -67 -81 0
13 -67 -91 0
13 -77 -51 0
13 -77 -61 0
13 -77 -71 0
13 -77 -91 0
13 -87 -51 0
13 -87 -61 0
13 -87 -71 0
13 -87 -81 0
14 -47 -62 0
14 -47 -72 0
14 -47 -82 0
14 -47 -92 0
14 -57 -52 0
14 -57 -72 0
14 -57 -82 0
14 -57 -92 0
14 -67 -52 0
14 -67 -62 0
14 -67 -82 0
14 -67 -92 0
14 -77 -52 0
14 -77 -62 0
14 -77 -72 0
14 -77 -92 0
14 -87 -52 0
14 -87 -62 0
14 -87 -72 0
14 -87 -82 0
15 -47 -63 0
15 -47 -73 0
15 -47 -83 0
15 -47 -93 0
15 -57 -53 0
15 -57 -73 0
15 -57 -83 0
15 -57 -93 0
15 -67 -53 0
15 -67 -63 0
15 -67 -83 0
15 -67 -93 0
15 -77 -53 0
15 -77 -63 0
15 -77 -73 0
15 -77 -93 0
15 -87 -53 0
15 -87 -63 0
15 -87 -73 0
15 -87 -83 0
16 -47 -64 0
16 -47 -74 0
16 -47 -84 0
16 -47 -94 0
16 -57 -54 0
16 -57 -74 0
16 -57 -84 0
16 -57 -94 0
16 -67 -54 0
16 -67 -64 0
16 -67 -84 0
16 -67 -94 0
16 -77 -54 0
16 -77 -64 0
16 -77 -74 0
16 -77 -94 0
16 -87 -54 0
16 -87 -64 0
16 -87 -74 0
16 -87 -84 0
17 -47 -65 0
17 -47 -75 0
17 -47 -85 0
17 -47 -95 0
17 -57 -55 0
17 -57 -75 0
17 -57 -85 0
17 -57 -95 0
17 -67 -55 0
17 -67 -65 0
17 -67 -85 0
17 -67 -95 0
17 -77 -55 0
17 -77 -65 0
17 -77 -75 0
17 -77 -95 0
17 -87 -55 0
17 -87 -65 0
17 -87 -75 0
17 -87 -85 0
18 -48 -59 0
18 -48 -69 0
18 -48 -79 0
18 -48 -89 0
18 -58 -49 0
18 -58 -69 0
18 -58 -79 0
18 -58 -89 0
18 -68 -49 0
18 -68 -59 0
18 -68 -79 0
18 -68 -89 0
18 -78 -49 0
18 -78 -59 0
18 -78 -69 0
18 -78 -89 0
18 -88 -49 0
18 -88 -59 0
18 -88 -69 0
18 -88 -79 0
19 -48 -60 0
19 -48 -70 0
19 -48 -80 0
19 -48 -90 0
19 -58 -50 0
19 -58 -70 0
19 -58 -80 0
19 -58 -90 0
19 -68 -50 0
19 -68 -60 0
19 -68 -80 0
19 -68 -90 0
19 -78 -50 0
19 -78 -60 0
19 -78 -70 0
19 -78 -90 0
19 -88 -50 0
19 -88 -60 0
19 -88 -70 0
19 -88 -80 0
20 -48 -61 0
20 -48 -71 0
20 -48 -81 0
20 -48 -91 0
20 -58 -51 0
20 -58 -71 0
20 -58 -81 0
20 -58 -91 0
20 -68 -51 0
20 -68 -61 0
20 -68 -81 0
20 -68 -91 0
20 -78 -51 0
20 -78 -61 0
20 -78 -71 0
20 -78 -91 0
20 -88 -51 0
20 -88 -61 0
20 -88 -71 0
20 -88 -81 0
21 -48 -62 0
21 -48 -72 0
21 -48 -82 0
21 -48 -92 0
21 -58 -52 0
21 -58 -72 0
21 -58 -82 0
21 -58 -92 0
21 -68 -52 0
21 -68 -62 0
21 -68 -82 0
21 -68 -92 0
21 -78 -52 0
21 -78 -62 0
21 -78 -72 0
21 -78 -92 0
21 -88 -52 0
21 -88 -62 0
21 -88 -72 0
21 -88 -82 0
22 -48 -63 0
22 -48 -73 0
22 -48 -83 0
22 -48 -93 0
22 -58 -53 0
22 -58 -73 0
22 -58 -83 0
22 -58 -93 0
22 -68 -53 0
22 -68 -63 0
22 -68 -83 0
22 -68 -93 0
22 -78 -53 0
22 -78 -63 0
22 -78 -73 0
22 -78 -93 0
22 -88 -53 0
22 -88 -63 0
22 -88 -73 0
22 -88 -83 0
23 -48 -64 0
23 -48 -74 0
23 -48 -84 0
23 -48 -94 0
23 -58 -54 0
23 -58 -74 0
23 -58 -84 0
23 -58 -94 0
23 -68 -54 0
23 -68 -64 0
23 -68 -84 0
23 -68 -94 0
23 -78 -54 0
23 -78 -64 0
23 -78 -74 0
23 -78 -94 0
23 -88 -54 0
23 -88 -64 0
23 -88 -74 0
23 -88 -84 0
24 -48 -65 0
24 -48 -75 0
24 -48 -85 0
24 -48 -95 0
24 -58 -55 0
24 -58 -75 0
24 -58 -85 0
24 -58 -95 0
24 -68 -55 0
24 -68 -65 0
24 -68 -85 0
24 -68 -95 0
24 -78 -55 0
24 -78 -65 0
24 -78 -75 0
24 -78 -95 0
24 -88 -55 0
24 -88 -65 0
24 -88 -75 0
24 -88 -85 0
25 -49 -60 0
25 -49 -70 0
25 -49 -80 0
25 -49 -90 0
25 -59 -50 0
25 -59 -70 0
25 -59 -80 0
25 -59 -90 0
25 -69 -50 0
25 -69 -60 0
25 -69 -80 0
25 -69 -90 0
25 -79 -50 0
25 -79 -60 0
25 -79 -70 0
25 -79 -90 0
25 -89 -50 0
25 -89 -60 0
25 -89 -70 0
25 -89 -80 0
26 -49 -61 0
26 -49 -71 0
26 -49 -81 0
26 -49 -91 0
26 -59 -51 0
26 -59 -71 0
26 -59 -81 0
26 -59 -91 0
26 -69 -51 0
26 -69 -61 0
26 -69 -81 0
26 -69 -91 0
26 -79 -51 0
26 -79 -61 0
26 -79 -71 0
26 -79 -91 0
26 -89 -51 0
26 -89 -61 0
26 -89 -71 0
26 -89 -81 0
27 -49 -62 0
27 -49 -72 0
27 -49 -82 0
27 -49 -92 0
27 -59 -52 0
27 -59 -72 0
27 -59 -82 0
27 -59 -92 0
27 -69 -52 0
27 -69 -62 0
27 -69 -82 0
27 -69 -92 0
27 -79 -52 0
27 -79 -62 0
27 -79 -72 0
27 -79 -92 0
27 -89 -52 0
27 -89 -62 0
27 -89 -72 0
27 -89 -82 0
28 -49 -63 0
28 -49 -73 0
28 -49 -83 0
28 -49 -93 0
28 -59 -53 0
28 -59 -73 0
28 -59 -83 0
28 -59 -93 0
28 -69 -53 0
28 -69 -63 0
28 -69 -83 0
28 -69 -93 0
28 -79 -53 0
28 -79 -63 0
28 -79 -73 0
28 -79 -93 0
28 -89 -53 0
28 -89 -63 0
28 -89 -73 0
28 -89 -83 0
29 -49 -64 0
29 -49 -74 0
29 -49 -84 0
29 -49 -94 0
29 -59 -54 0
29 -59 -74 0
29 -59 -84 0
29 -59 -94 0
29 -69 -54 0
29 -69 -64 0
29 -69 -84 0
29 -69 -94 0
29 -79 -54 0
29 -79 -64 0
29 -79 -74 0
29 -79 -94 0
29 -89 -54 0
29 -89 -64 0
29 -89 -74 0
29 -89 -84 0
30 -49 -65 0
30 -49 -75 0
30 -49 -85 0
30 -49 -95 0
30 -59 -55 0
30 -59 -75 0
30 -59 -85 0
30 -59 -95 0
30 -69 -55 0
30 -69 -65 0
30 -69 -85 0
30 -69 -95 0
30 -79 -55 0
30 -79 -65 0
30 -79 -75 0
30 -79 -95 0
30 -89 -55 0
30 -89 -65 0
30 -89 -75 0
30 -89 -85 0
31 -50 -61 0
31 -50 -71 0
31 -50 -81 0
31 -50 -91 0
31 -60 -51 0
31 -60 -71 0
31 -60 -81 0
31 -60 -91 0
31 -70 -51 0
31 -70 -61 0
31 -70 -81 0
31 -70 -91 0
31 -80 -51 0
31 -80 -61 0
31 -80 -71 0
31 -80 -91 0
31 -90 -51 0
31 -90 -61 0
31 -90 -71 0
31 -90 -81 0
32 -50 -62 0
32 -50 -72 0
32 -50 -82 0
32 -50 -92 0
32 -60 -52 0
32 -60 -72 0
32 -60 -82 0
32 -60 -92 0
32 -70 -52 0
32 -70 -62 0
32 -70 -82 0
32 -70 -92 0
32 -80 -52 0
32 -80 -62 0
32 -80 -72 0
32 -80 -92 0
32 -90 -52 0
32 -90 -62 0
32 -90 -72 0
32 -90 -82 0
33 -50 -63 0
33 -50 -73 0
33 -50 -83 0
33 -50 -93 0
33 -60 -53 0
33 -60 -73 0
33 -60 -83 0
33 -60 -93 0
33 -70 -53 0
33 -70 -63 0
33 -70 -83 0
33 -70 -93 0
33 -80 -53 0
33 -80 -63 0
33 -80 -73 0
33 -80 -93 0
33 -90 -53 0
33 -90 -63 0
33 -90 -73 0
33 -90 -83 0
34 -50 -64 0
34 -50 -74 0
34 -50 -84 0
34 -50 -94 0
34 -60 -54 0
34 -60 -74 0
34 -60 -84 0
34 -60 -94 0
34 -70 -54 0
34 -70 -64 0
34 -70 -84 0
34 -70 -94 0
34 -80 -54 0
34 -80 -64 0
34 -80 -74 0
34 -80 -94 0
34 -90 -54 0
34 -90 -64 0
34 -90 -74 0
34 -90 -84 0
35 -50 -65 0
35 -50 -75 0
35 -50 -85 0
35 -50 -95 0
35 -60 -55 0
35 -60 -75 0
35 -60 -85 0
35 -60 -95 0
35 -70 -55 0
35 -70 -65 0
35 -70 -85 0
35 -70 -95 0
35 -80 -55 0
35 -80 -65 0
35 -80 -75 0
35 -80 -95 0
35 -90 -55 0
35 -90 -65 0
35 -90 -75 0
35 -90 -85 0
36 -51 -62 0
36 -51 -72 0
36 -51 -82 0
36 -51 -92 0
36 -61 -52 0
36 -61 -72 0
36 -61 -82 0
36 -61 -92 0
36 -71 -52 0
36 -71 -62 0
36 -71 -82 0
36 -71 -92 0
36 -81 -52 0
36 -81 -62 0
36 -81 -72 0
36 -81 -92 0
36 -91 -52 0
36 -91 -62 0
36 -91 -72 0
36 -91 -82 0
37 -51 -63 0
37 -51 -73 0
37 -51 -83 0
37 -51 -93 0
37 -61 -53 0
37 -61 -73 0
37 -61 -83 0
37 -61 -93 0
37 -71 -53 0
37 -71 -63 0
37 -71 -83 0
37 -71 -93 0
37 -81 -53 0
37 -81 -63 0
37 -81 -73 0
37 -81 -93 0
37 -91 -53 0
37 -91 -63 0
37 -91 -73 0
37 -91 -83 0
38 -51 -64 0
38 -51 -74 0
38 -51 -84 0
38 -51 -94 0
38 -61 -54 0
38 -61 -74 0
38 -61 -84 0
38 -61 -94 0
38 -71 -54 0
38 -71 -64 0
38 -71 -84 0
38 -71 -94 0
38 -81 -54 0
38 -81 -64 0
38 -81 -74 0
38 -81 -94 0
38 -91 -54 0
38 -91 -64 0
38 -91 -74 0
38 -91 -84 0
39 -51 -65 0
39 -51 -75 0
39 -51 -85 0
39 -51 -95 0
39 -61 -55 0
39 -61 -75 0
39 -61 -85 0
39 -61 -95 0
39 -71 -55 0
39 -71 -65 0
39 -71 -85 0
39 -71 -95 0
39 -81 -55 0
39 -81 -65 0
39 -81 -75 0
39 -81 -95 0
39 -91 -55 0
39 -91 -65 0
39 -91 -75 0
39 -91 -85 0
40 -52 -63 0
40 -52 -73 0
40 -52 -83 0
40 -52 -93 0
40 -62 -53 0
40 -62 -73 0
40 -62 -83 0
40 -62 -93 0
40 -72 -53 0
40 -72 -63 0
40 -72 -83 0
40 -72 -93 0
40 -82 -53 0
40 -82 -63 0
40 -82 -73 0
40 -82 -93 0
40 -92 -53 0
40 -92 -63 0
40 -92 -73 0
40 -92 -83 0
41 -52 -64 0
41 -52 -74 0
41 -52 -84 0
41 -52 -94 0
41 -62 -54 0
41 -62 -74 0
41 -62 -84 0
41 -62 -94 0
41 -72 -54 0
41 -72 -64 0
41 -72 -84 0
41 -72 -94 0
41 -82 -54 0
41 -82 -64 0
41 -82 -74 0
41 -82 -94 0
41 -92 -54 0
41 -92 -64 0
41 -92 -74 0
41 -92 -84 0
42 -52 -65 0
42 -52 -75 0
42 -52 -85 0
42 -52 -95 0
42 -62 -55 0
42 -62 -75 0
42 -62 -85 0
42 -62 -95 0
42 -72 -55 0
42 -72 -65 0
42 -72 -85 0
42 -72 -95 0
42 -82 -55 0
42 -82 -65 0
42 -82 -75 0
42 -82 -95 0
42 -92 -55 0
42 -92 -65 0
42 -92 -75 0
42 -92 -85 0
43 -53 -64 0
43 -53 -74 0
43 -53 -84 0
43 -53 -94 0
43 -63 -54 0
43 -63 -74 0
43 -63 -84 0
43 -63 -94 0
43 -73 -54 0
43 -73 -64 0
43 -73 -84 0
43 -73 -94 0
43 -83 -54 0
43 -83 -64 0
43 -83 -74 0
43 -83 -94 0
43 -93 -54 0
43 -93 -64 0
43 -93 -74 0
43 -93 -84 0
44 -53 -65 0
44 -53 -75 0
44 -53 -85 0
44 -53 -95 0
44 -63 -55 0
44 -63 -75 0
44 -63 -85 0
44 -63 -95 0
44 -73 -55 0
44 -73 -65 0
44 -73 -85 0
44 -73 -95 0
44 -83 -55 0
44 -83 -65 0
44 -83 -75 0
44 -83 -95 0
44 -93 -55 0
44 -93 -65 0
44 -93 -75 0
44 -93 -85 0
45 -54 -65 0
45 -54 -75 0
45 -54 -85 0
45 -54 -95 0
45 -64 -55 0
45 -64 -75 0
45 -64 -85 0
45 -64 -95 0
45 -74 -55 0
45 -74 -65 0
45 -74 -85 0
45 -74 -95 0
45 -84 -55 0
45 -84 -65 0
45 -84 -75 0
45 -84 -95 0
45 -94 -55 0
45 -94 -65 0
45 -94 -75 0
45 -94 -85 0
-96 -97 0
-96 -98 0
-96 -99 0
-96 -100 0
-97 -98 0
-97 -99 0
-97 -100 0
-98 -99 0
-98 -100 0
-99 -100 0
96 97 98 99 100 0
-101 -102 0
-101 -103 0
-101 -104 0
-101 -105 0
-102 -103 0
-102 -104 0
-102 -105 0
-103 -104 0
-103 -105 0
-104 -105 0
101 102 103 104 105 0
-106 -107 0
-106 -108 0
-106 -109 0
-106 -110 0
-107 -108 0
-107 -109 0
-107 -110 0
-108 -109 0
-108 -110 0
-109 -110 0
106 107 108 109 110 0
-111 -112 0
-111 -113 0
-111 -114 0
-111 -115 0
-112 -113 0
-112 -114 0
-112 -115 0
-113 -114 0
-113 -115 0
-114 -115 0
111 112 113 114 115 0
-116 -117 0
-116 -118 0
-116 -119 0
-116 -120 0
-117 -118 0
-117 -119 0
-117 -120 0
-118 -119 0
-118 -120 0
-119 -120 0
116 117 118 119 120 0
-121 -122 0
-121 -123 0
-121 -124 0
-121 -125 0
-122 -123 0
-122 -124 0
-122 -125 0
-123 -124 0
-123 -125 0
-124 -125 0
121 122 123 124 125 0
-126 -127 0
-126 -128 0
-126 -129 0
-126 -130 0
-127 -128 0
-127 -129 0
-127 -130 0
-128 -129 0
-128 -130 0
-129 -130 0
126 127 128 129 130 0
-131 -132 0
-131 -133 0
-131 -134 0
-131 -135 0
-132 -133 0
-132 -134 0
-132 -135 0
-133 -134 0
-133 -135 0
-134 -135 0
131 132 133 134 135 0
-136 -137 0
-136 -138 0
-136 -139 0
-136 -140 0
-137 -138 0
-137 -139 0
-137 -140 0
-138 -139 0
-138 -140 0
-139 -140 0
136 137 138 139 140 0
-141 -142 0
-141 -143 0
-141 -144 0
-141 -145 0
-142 -143 0
-142 -144 0
-142 -145 0
-143 -144 0
-143 -145 0
-144 -145 0
141 142 143 144 145 0
-1 -96 -101 0
-1 -97 -102 0
-1 -98 -103 0
-1 -99 -104 0
-1 -100 -105 0
-2 -96 -106 0
-2 -97 -107 0
-2 -98 -108 0
-2 -99 -109 0
-2 -100 -110 0
-3 -96 -111 0
-3 -97 -112 0
-3 -98 -113 0
-3 -99 -114 0
-3 -100 -115 0
-4 -96 -116 0
-4 -97 -117 0
-4 -98 -118 0
-4 -99 -119 0
-4 -100 -120 0
-5 -96 -121 0
-5 -97 -122 0
-5 -98 -123 0
-5 -99 -124 0
-5 -100 -125 0
-6 -96 -126 0
-6 -97 -127 0
-6 -98 -128 0
-6 -99 -129 0
-6 -100 -130 0
-7 -96 -131 0
-7 -97 -132 0
-7 -98 -133 0
-7 -99 -134 0
-7 -100 -135 0
-8 -96 -136 0
-8 -97 -137 0
-8 -98 -138 0
-8 -99 -139 0
-8 -100 -140 0
-9 -96 -141 0
-9 -97 -142 0
-9 -98 -143 0
-9 -99 -144 0
-9 -100 -145 0
-10 -101 -106 0
-10 -102 -107 0
-10 -103 -108 0
-10 -104 -109 0
-10 -105 -110 0
-11 -101 -111 0
-11 -102 -112 0
-11 -103 -113 0
-11 -104 -114 0
-11 -105 -115 0
-12 -101 -116 0
-12 -102 -117 0
-12 -103 -118 0
-12 -104 -119 0
-12 -105 -120 0
-13 -101 -121 0
-13 -102 -122 0
-13 -103 -123 0
-13 -104 -124 0
-13 -105 -125 0
-14 -101 -126 0
-14 -102 -127 0
-14 -103 -128 0
-14 -104 -129 0
-14 -105 -130 0
-15 -101 -131 0
-15 -102 -132 0
-15 -103 -133 0
-15 -104 -134 0
-15 -105 -135 0
-16 -101 -136 0
-16 -102 -137 0
-16 -103 -138 0
-16 -104 -139 0
-16 -105 -140 0
-17 -101 -141 0
-17 -102 -142 0
-17 -103 -143 0
-17 -104 -144 0
-17 -105 -145 0
-18 -106 -111 0
-18 -107 -112 0
-18 -108 -113 0
-18 -109 -114 0
-18 -110 -115 0
-19 -106 -116 0
-19 -107 -117 0
-19 -108 -118 0
-19 -109 -119 0
-19 -110 -120 0
-20 -106 -121 0
-20 -107 -122 0
-20 -108 -123 0
-20 -109 -124 0
-20 -110 -125 0
-21 -106 -126 0
-21 -107 -127 0
-21 -108 -128 0
-21 -109 -129 0
-21 -110 -130 0
-22 -106 -131 0
-22 -107 -132 0
-22 -108 -133 0
-22 -109 -134 0
-22 -110 -135 0
-23 -106 -136 0
-23 -107 -137 0
-23 -108 -138 0
-23 -109 -139 0
-23 -110 -140 0
-24 -106 -141 0
-24 -107 -142 0
-24 -108 -143 0
-24 -109 -144 0
-24 -110 -145 0
-25 -111 -116 0
-25 -112 -117 0
-25 -113 -118 0
-25 -114 -119 0
-25 -115 -120 0
-26 -111 -121 0
-26 -112 -122 0
-26 -113 -123 0
-26 -114 -124 0
-26 -115 -125 0
-27 -111 -126 0
-27 -112 -127 0
-27 -113 -128 0
-27 -114 -129 0
-27 -115 -130 0
-28 -111 -131 0
-28 -112 -132 0
-28 -113 -133 0
-28 -114 -134 0
-28 -115 -135 0
-29 -111 -136 0
-29 -112 -137 0
-29 -113 -138 0
-29 -114 -139 0
-29 -115 -140 0
-30 -111 -141 0
-30 -112 -142 0
-30 -113 -143 0
-30 -114 -144 0
-30 -115 -145 0
-31 -116 -121 0
-31 -117 -122 0
-31 -118 -123 0
-31 -119 -124 0
-31 -120 -125 0
-32 -116 -126 0
-32 -117 -127 0
-32 -118 -128 0
-32 -119 -129 0
-32 -120 -130 0
-33 -116 -131 0
-33 -117 -132 0
-33 -118 -133 0
-33 -119 -134 0
-33 -120 -135 0
-34 -116 -136 0
-34 -117 -137 0
-34 -118 -138 0
-34 -119 -139 0
-34 -120 -140 0
-35 -116 -141 0
-35 -117 -142 0
-35 -118 -143 0
-35 -119 -144 0
-35 -120 -145 0
-36 -121 -126 0
-36 -122 -127 0
-36 -123 -128 0
-36 -124 -129 0
-36 -125 -130 0
-37 -121 -131 0
-37 -122 -132 0
-37 -123 -133 0
-37 -124 -134 0
-37 -125 -135 0
-38 -121 -136 0
-38 -122 -137 0
-38 -123 -138 0
-38 -124 -139 0
-38 -125 -140 0
-39 -121 -141 0
-39 -122 -142 0
-39 -123 -143 0
-39 -124 -144 0
-39 -125 -145 0
-40 -126 -131 0
-40 -127 -132 0
-40 -128 -133 0
-40 -129 -134 0
-40 -130 -135 0
-41 -126 -136 0
-41 -127 -137 0
-41 -128 -138 0
-41 -129 -139 0
-41 -130 -140 0
-42 -126 -141 0
-42 -127 -142 0
-42 -128 -143 0
-42 -129 -144 0
-42 -130 -145 0
-43 -131 -136 0
-43 -132 -137 0
-43 -133 -138 0
-43 -134 -139 0
-43 -135 -140 0
-44 -131 -141 0
-44 -132 -142 0
-44 -133 -143 0
-44 -134 -144 0
-44 -135 -145 0
-45 -136 -141 0
-45 -137 -142 0
-45 -138 -143 0
-45 -139 -144 0
-45 -140 -145 0